NAME : portcgen-18-28
COMMENT : portcgen N=18, seed=28
TYPE : TSP
DIMENSION : 18
EDGE_WEIGHT_TYPE : EUC_2D
NODE_COORD_SECTION
1 166444 -122439
2 262598 -234416
3 -220852 398343
4 -129705 88538
5 -177788 -30167
6 -473432 -125855
7 264079 -266711
8 -18855 464308
9 59731 250077
10 -249445 388534
11 -40051 96245
12 315471 -388747
13 388763 -215973
14 -228852 -187422
15 -6944 -7949
16 228346 -242166
17 252698 -7477
18 -185106 -188322
